JulietBench/Juliet_Based_Patch_Bench/linux/CWE-189-Numeric-Errors/CVE_2012_2100_d50f2ab6f050311dbf7b8f5501b25f0bf64a439b/Resultext4_fill_flex_info_Snippet_patch2EQ.smt2
; benchmark generated from python API
(set-info :status unknown)
(declare-fun R () (_ BitVec 32))
(declare-fun rdi () (_ BitVec 64))
(assert
 (let (($x17 (= (_ bv2 32) R)))
 (let (($x13 (= (_ bv1 32) R)))
 (let ((?x27 ((_ extract 4 0) rdi)))
 (let ((?x39 (concat (_ bv0 59) ?x27)))
 (let ((?x40 (bvshl (_ bv1 64) ?x39)))
 (let ((?x41 ((_ extract 31 0) ?x40)))
 (let (($x31 (bvsge (_ bv1 32) ?x41)))
 (let (($x14 (and $x31 $x13)))
 (let (($x11 (= R ?x41)))
 (let (($x48 (bvslt (_ bv1 32) ?x41)))
 (let (($x12 (and $x48 $x11)))
 (let (($x15 (or $x12 $x14)))
 (and $x15 $x17))))))))))))))
(check-sat)
